49 37 31 3 46 6 1 8 14 35 50 9 28 60 25 1 11 48 5 44 39 32 47 2 19 1 12 57 45 34 1 16 13 29 23 54 22 1 17 62 4 42 10 43 1 20 21 55 30 61 26 1 27 1 38 7 40 24 53 63 58 52 1 41 15 59 33 56 51 36 18 1 49 37 31 3 46 6 1  (968)
Cost 1970.13

